(set-logic QF_S)
(declare-fun var_0xINPUT_108934 () String)
(assert (and (= (len var_0xINPUT_108934) 0) (= (len var_0xINPUT_108934) 0) (not (= var_0xINPUT_108934 "Example:")) (not (= var_0xINPUT_108934 "AA1ND6MEXd"))))
(check-sat var_0xINPUT_108934)